SensorTriggeredCamera.txt
./Debug/pump.cc.o ./Debug/runtime.cc.o ./Debug/PIRSensor.cc.o ./Debug/MotionTriggeredCam.cc.o ./Debug/MotionTriggeredCameraSystem.cc.o ./Debug/IRLED.cc.o ./Debug/main.cpp.o
